p wcnf 13 43 365
365 1 3 0
365 1 6 0
365 1 9 0
365 2 5 0
365 2 7 0
365 2 10 0
365 3 4 0
365 3 5 0
365 3 8 0
365 3 12 0
365 4 6 0
365 4 11 0
365 4 13 0
365 5 6 0
365 5 8 0
365 5 11 0
365 6 7 0
365 6 8 0
365 6 10 0
365 6 12 0
365 7 8 0
365 7 10 0
365 7 11 0
365 7 12 0
365 8 9 0
365 8 11 0
365 9 10 0
365 10 13 0
365 11 13 0
365 12 13 0
27 -1 0
27 -2 0
25 -3 0
26 -4 0
25 -5 0
23 -6 0
24 -7 0
24 -8 0
27 -9 0
25 -10 0
25 -11 0
26 -12 0
26 -13 0
